59 84 64 72 80 4 53 74 9 38 85 30 12 75 98 34 86 78 58 41 46 94 49 63 97 10 48 56 67 6 52 43 18 31 15 81 50 70 65 22 90 25 21 87 5 47 88 39 20 35 11 54 37 60 61 76 62 28 92 19 40 79 23 45 3 66 16 2 17 0 73 71 57 27 95 89 14 13 91 44 69 8 51 93 36 26 32 29 77 55 42 1 68 24 83 7 99 96 82 33